proyfinal/src/viki/013/experimentInOfficeAgust.take6.output/fc08c69a-64ee-4556-ae5c-0185483dd492.als.dat
{'cnf.clauses': '118081',
 'cnf.totvars': '69608',
 'conflict literals': '93',
 'conflicts': '29',
 'decisions': '11949',
 'memused.mb': '15.46',
 'outcome': 'UNSAT',
 'propagations': '43956',
 'restarts': '1',
 'solver.msecs': 29,
 'task.msecs': 156}
