proyfinal/src/viki/013/experimentInOfficeAgust.take6.output/fc08c69a-64ee-4556-ae5c-0185483dd492.als.out
Reading from standard input... Use '--help' for help.
============================[ Problem Statistics ]=============================
|                                                                             |
|  Number of variables:         69608                                         |
|  Number of clauses:          118081                                         |
|  Parse time:                   0.02 s                                       |
|                                                                             |
============================[ Search Statistics ]==============================
| Conflicts |          ORIGINAL         |          LEARNT          | Progress |
|           |    Vars  Clauses Literals |    Limit  Clauses Lit/Cl |          |
===============================================================================
===============================================================================
restarts              : 1
conflicts             : 29             (993 /sec)
decisions             : 11949          (0.00 % random) (409016 /sec)
propagations          : 43956          (1504621 /sec)
conflict literals     : 93             (0.00 % deleted)
Memory used           : 15.46 MB
CPU time              : 0.029214 s

UNSATISFIABLE
